Route #1: 101 61 17 110 75 118 147 15 122 38 41 143
Route #2: 49 14 68 36 65 103 16 99 93 32 69 20
Route #3: 120 26 128 62 97 87 73 106 3 42 21 121
Route #4: 67 4 35 54 6 95 55 115 131 133 135 142
Route #5: 56 23 31 140 98 154 50 105 152 37 116 27
Route #6: 148 71 149 59 8 150 96 102 123 53 144 85
Route #7: 44 124 130 46 104 127 28 66 94 86 111 132
Route #8: 19 145 7 137 92 139 125 1 70 47 88 43
Route #9: 64 141 24 83 45 57 5 126 117 78 146 156
Route #10: 129 91 82 11 77 2 153 9 108 40 80 63
Route #11: 151 48 33 79 74 84 119 136 76 90 51 13
Route #12: 72 34 18 138 25 30 22 12 89 112 100 113
Route #13: 81 60 109 114 29 58 39 10 134 155 52 107
Cost 19175
